50, 2476460
100045, 78
100070, 214
100009, 304
100006, 901
100066, 497
100004, 721
100030, 101
100038, 509
100019, 844
100003, 523
100000, 945
100096, 882
100069, 371
100096, 1
100049, 756
100096, 127
100087, 10
100062, 731
100053, 843
100051, 837
100022, 954
100037, 202
100073, 82
100019, 121
100085, 978
100051, 112
100061, 160
100083, 21
100065, 50
100013, 39
100025, 354
100000, 164
100002, 310
100096, 929
100059, 168
100097, 815
100078, 739
100031, 569
100097, 576
100093, 771
100046, 588
100008, 230
100032, 330
100016, 245
100036, 401
100008, 988
100072, 427
100098, 70
100021, 477
100078, 813
